51 6
10 10 11 10 10 10
1 0 0 0 0 0 0 3 2 3 4
4 0 5 10 7 5 0 3 5 6 7
5 2 4 0 7 0 0 3 5 7 8
11 0 2 0 5 1 5 2 5 7
5 0 0 9 0 2 0 2 9 11
7 0 10 5 0 3 10 4 9 10 11 12
9 0 0 3 0 0 0 1 9
11 7 2 9 0 0 3 2 9 11
1 0 0 8 0 9 4 2 13 16
8 10 7 7 0 0 2 3 13 14 16
6 0 10 0 3 2 2 3 14 15 16
4 2 0 0 0 0 0 3 13 14 16
8 0 0 0 3 0 0 2 17 18
5 0 9 7 6 6 2 2 17 18
8 3 5 1 3 0 3 1 20
6 0 0 3 9 4 7 1 19
9 10 0 8 9 0 0 1 22
1 7 0 6 0 0 6 2 21 23
8 3 4 0 0 0 0 2 23 24
7 0 0 0 0 5 0 1 22
5 0 5 1 0 5 9 2 25 26
10 0 5 0 5 10 0 2 26 28
5 5 0 8 0 0 0 2 25 27
8 1 3 0 0 0 2 3 25 26 27
5 0 0 9 10 6 0 3 29 30 31
6 3 0 5 4 0 10 4 29 30 31 32
2 4 0 0 0 10 0 2 29 31
3 1 5 0 0 0 1 2 30 32
10 1 0 4 6 1 0 3 34 35 36
8 8 0 0 0 1 0 2 33 36
3 10 4 1 10 6 6 2 34 36
5 0 3 0 3 0 10 1 36
5 7 0 4 7 6 4 2 37 39
10 0 0 10 9 0 0 3 37 38 40
6 0 0 0 1 2 2 2 38 40
4 1 8 5 1 0 0 1 38
4 0 0 6 0 0 0 4 41 42 43 44
7 0 0 8 0 10 6 4 41 42 43 44
7 0 7 0 7 10 0 2 42 44
10 8 6 9 2 0 0 2 42 43
5 6 0 6 0 8 0 1 48
9 4 5 5 0 2 4 3 45 46 48
10 8 1 4 8 4 0 1 47
2 0 1 0 0 8 4 2 45 48
6 0 3 0 0 10 0 2 49 50
4 2 1 0 10 0 0 1 49
2 7 0 0 3 0 5 1 50
3 2 4 0 1 0 8 2 49 50
2 8 0 3 0 0 4 1 51
8 0 0 7 2 10 0 1 51
0 0 0 0 0 0 0 0
